dimacs/2x2_1.cnf
p cnf 16 125
-1 -2 0
-3 -4 0
1 2 0
3 4 0
-5 -6 0
-7 -8 0
5 6 0
7 8 0
-9 -10 0
-11 -12 0
9 10 0
11 12 0
-13 -14 0
-15 -16 0
13 14 0
15 16 0
-1 -5 -3 -7 0
-3 -7 -1 -5 0
-1 -5 -4 -8 0
-3 -7 -2 -6 0
-2 -6 -3 -7 0
-4 -8 -1 -5 0
-2 -6 -4 -8 0
-4 -8 -2 -6 0
-1 -9 -3 -11 0
-3 -11 -1 -9 0
-1 -9 -4 -12 0
-3 -11 -2 -10 0
-2 -10 -3 -11 0
-4 -12 -1 -9 0
-2 -10 -4 -12 0
-4 -12 -2 -10 0
-1 -13 -3 -15 0
-3 -15 -1 -13 0
-1 -13 -4 -16 0
-3 -15 -2 -14 0
-2 -14 -3 -15 0
-4 -16 -1 -13 0
-2 -14 -4 -16 0
-4 -16 -2 -14 0
-5 -9 -7 -11 0
-7 -11 -5 -9 0
-5 -9 -8 -12 0
-7 -11 -6 -10 0
-6 -10 -7 -11 0
-8 -12 -5 -9 0
-6 -10 -8 -12 0
-8 -12 -6 -10 0
-5 -13 -7 -15 0
-7 -15 -5 -13 0
-5 -13 -8 -16 0
-7 -15 -6 -14 0
-6 -14 -7 -15 0
-8 -16 -5 -13 0
-6 -14 -8 -16 0
-8 -16 -6 -14 0
-9 -13 -11 -15 0
-11 -15 -9 -13 0
-9 -13 -12 -16 0
-11 -15 -10 -14 0
-10 -14 -11 -15 0
-12 -16 -9 -13 0
-10 -14 -12 -16 0
-12 -16 -10 -14 0
8 16 4 -3 -1 0
8 13 4 -3 -1 0
5 16 4 -3 -1 0
5 13 4 -3 -1 0
8 16 4 -3 -2 0
8 14 4 -3 -2 0
6 16 4 -3 -2 0
6 14 4 -3 -2 0
14 1 -1 -3 0
15 1 -1 -3 0
14 1 -1 -4 0
16 1 -1 -4 0
3 0
5 1 -2 -3 0
7 1 -2 -3 0
5 1 -2 -4 0
8 1 -2 -4 0
12 8 -7 -5 0
9 8 -7 -5 0
12 8 -7 -6 0
10 8 -7 -6 0
2 10 5 -5 -7 0
2 11 5 -5 -7 0
3 10 5 -5 -7 0
3 11 5 -5 -7 0
2 10 5 -5 -8 0
2 12 5 -5 -8 0
4 10 5 -5 -8 0
4 12 5 -5 -8 0
3 7 -8 -5 0
1 7 -8 -5 0
3 7 -8 -6 0
2 7 -8 -6 0
5 0
12 0
14 9 -9 -11 0
15 9 -9 -11 0
14 9 -9 -12 0
16 9 -9 -12 0
7 11 -12 -9 0
5 11 -12 -9 0
7 11 -12 -10 0
6 11 -12 -10 0
5 9 -10 -11 0
7 9 -10 -11 0
5 9 -10 -12 0
8 9 -10 -12 0
16 0
14 0
3 15 -16 -13 0
1 15 -16 -13 0
3 15 -16 -14 0
2 15 -16 -14 0
1 9 13 -14 -15 0
1 11 13 -14 -15 0
3 9 13 -14 -15 0
3 11 13 -14 -15 0
1 9 13 -14 -16 0
1 12 13 -14 -16 0
4 9 13 -14 -16 0
4 12 13 -14 -16 0
