dimacs/2x2_1.output
c SAT4J: a SATisfiability library for Java (c) 2004-2013 Artois University and CNRS
c This is free software under the dual EPL/GNU LGPL licenses.
c See www.sat4j.org for details.
c version 2.3.5.WHEEZY
c java.runtime.name	OpenJDK Runtime Environment
c java.vm.name		OpenJDK 64-Bit Server VM
c java.vm.version	11.0.9.1+1-post-Debian-1deb10u2
c java.vm.vendor	Debian
c sun.arch.data.model	64
c java.version		11.0.9.1
c os.name		Linux
c os.version		4.19.0-13-amd64
c os.arch		amd64
c Free memory 		263971312
c Max memory 		4206886912
c Total memory 		266338304
c Number of processors 	4
c --- Begin Solver configuration ---
c org.sat4j.minisat.constraints.MixedDataStructureDanielWL@4d76f3f8
c Learn all clauses as in MiniSAT
c claDecay=0.999 varDecay=0.95 conflictBoundIncFactor=1.5 initConflictBound=100 
c VSIDS like heuristics from MiniSAT using a heap lightweight component caching from RSAT
c Expensive reason simplification
c Glucose 2.1 dynamic restart strategy
c Glucose 2 learned constraints deletion strategy
c timeout=2147483647s
c DB Simplification allowed=true
c Listener: org.sat4j.minisat.core.VoidTracing@6438a396
c --- End Solver configuration ---
c solving dimacs/2x2_1.cnf
c reading problem ... 
c ... done. Wall clock time 0.008s.
c declared #vars     16
c #constraints  98
c constraints type 
c org.sat4j.minisat.constraints.cnf.OriginalBinaryClause => 17
c org.sat4j.minisat.constraints.cnf.OriginalWLClause => 76
c ignored satisfied constraints => 27
c org.sat4j.minisat.constraints.cnf.UnitClause => 5
c 125 constraints processed.
c starts		: 1
c conflicts		: 0
c decisions		: 0
c propagations		: 16
c inspects		: 118
c shortcuts		: 0
c learnt literals	: 0
c learnt binary clauses	: 0
c learnt ternary clauses	: 0
c learnt constraints	: 0
c ignored constraints	: 0
c root simplifications	: 1
c removed literals (reason simplification)	: 0
c reason swapping (by a shorter reason)	: 0
c Calls to reduceDB	: 0
c Number of update (reduction) of LBD	: 0
c Imported unit clauses	: 0
c speed (assignments/second)	: 5333.333333333333
c non guided choices	0
c learnt constraints type 
c constraints type 
c org.sat4j.minisat.constraints.cnf.OriginalBinaryClause => 17
c org.sat4j.minisat.constraints.cnf.OriginalWLClause => 76
c ignored satisfied constraints => 27
c org.sat4j.minisat.constraints.cnf.UnitClause => 5
c 125 constraints processed.
s SATISFIABLE
v -1 2 3 -4 5 -6 7 -8 9 -10 -11 12 -13 14 -15 16 0
c Total wall clock time (in seconds) : 0.012
